c This is QMaxSAT 2017 based on 14.07
c This is Glucose 3.0
c This is MiniSat 2.2.0
c WARNING: for repeatability, setting FPU to use double precision
c card = mrwto, comp = 0, pmodel = 0, narr = 2, mct = 42, verb = 0
cr firstCPXsol 0 0 0
c top = 127531
c |  Number of variables:    3698                                             |
c |  Number of clauses:      147358                                           |
c |  Weight of hard clauses: 127531                                           |
c |  Number of soft clauses: 3608                                             |
c |  Number of unit soft clauses: 0                                           |
c |  Maximum Cardinality (by unit): 269764       (0           )               |
c last restart ## conflicts  :  1 766 
o 2405 | cpuTime 0.324777 s
c Sum of weights = 134882
c A number of soft clauses remained = 1804
c MRWTO encoding for Pseudo-Boolean Constraints
c sizeMax=2405
c No.0 Divisor=14	generated by pow1
c No.1 Divisor=14	generated by pow1
c No.2 Divisor=14	generated by pow1
c p0= 14	p1= 14	p2= 14	
c number of digits = 4
c linkingVar[0].size = 14, linkingVar[1].size = 14, linkingVar[2].size = 13, linkingVar[3].size = 1, 
c Pseudo-Boolean Constraints: 40616 variables and 444243 clauses
c Sum of weights = 134882
c A number of soft clauses remained = 1804
c MRWTO encoding for Pseudo-Boolean Constraints
c sizeMax=2405
c No.0 Divisor=14	generated by pow1
c No.1 Divisor=14	generated by pow1
c No.2 Divisor=14	generated by pow1
c p0= 14	p1= 14	p2= 14	
c number of digits = 4
c linkingVar[0].size = 14, linkingVar[1].size = 14, linkingVar[2].size = 13, linkingVar[3].size = 1, 
c Pseudo-Boolean Constraints: 40616 variables and 444243 clauses
c last restart ## conflicts  :  615 4356 
o 2193 | cpuTime 0.554615 s
c last restart ## conflicts  :  10715 2624 
o 1821 | cpuTime 4.44736 s
c last restart ## conflicts  :  125 2716 
o 1402 | cpuTime 7.43916 s
c last restart ## conflicts  :  384 1985 
o 1246 | cpuTime 131.011 s
c last restart ## conflicts  :  5639 1361 
o 1093 | cpuTime 132.103 s
c last restart ## conflicts  :  343 1268 
o 943 | cpuTime 1305.01 s
c last restart ## conflicts  :  930 1198 
o 902 | cpuTime 2475.75 s
c last restart ## conflicts  :  858 1144 
o 871 | cpuTime 2805.16 s
c last restart ## conflicts  :  1300 1054 
o 856 | cpuTime 3083.68 s
s UNKNOWN
c Search is stopped by a limit (maybe time-limit)
cr positiVarArr: [ | 43(1->42) | 53(1->9) | 128(2->41) | 137(3->7) | 178(4->5) | 216(5->1) | 293(6->34) | 308(7->6) | 370(8->25) | 398(9->10) | 433(10->2) | 498(11->24) | 532(12->15) | 576(13->16) | 616(14->13) | 660(15->14) | 707(16->18) | 743(17->11) | 806(18->31) | 839(19->21) | 880(20->19) | 921(21->17) | 951(22->4) | 1002(23->12) | 1059(24->26) | 1099(25->23) | 1146(26->27) | 1190(27->28) | 1235(28->30) | 1270(29->22) | 1323(30->32) | 1363(31->29) | 1416(32->39) | 1421(33->1) | 1496(34->33) | 1542(35->36) | 1552(36->3) | 1627(37->35) | 1672(38->37) | 1718(39->40) | 1759(40->38) | 1772(41->8) | 1827(42->20) | ]
cr the 1-th chain: [ 1->42->20->19->21->17->11->24->26->27->28->30->32->39->40->38->37->35->36->3->7->6->34->33->1 ] (#non-depot=23) {#cumul.=24}
cr the 2-th chain: [ 1->9->10->2->41->8->25->23->12->15->14->13->16->18->31->29->22->4->5->1 ] (#non-depot=18) {#cumul.=42}
c Latest Answer = 0 by 10 loops
c restarts              : 41842
c conflicts             : 18190847       (4910 /sec)
c decisions             : 47174184       (0.00 % random) (12734 /sec)
c propagations          : 4287475198     (1157356 /sec)
c conflict literals     : 3872802624     (8.40 % deleted)
c Memory used           : 963.00 MB
c CPU time              : 3704.54 s
